Route #1: 75 4 34 52 27 13 54 19 35 7 8 46
Route #2: 67 53 14 59 66 11 65 38
Route #3: 58 10 31 72 39 9 25 55 18 50 32 44
Route #4: 3 16 49 24 23 56 41 43 42 64 22 61
Route #5: 48 47 21 69 36 71 60 70 20 37 15 57 5 29
Route #6: 45 30 74 28 62 73 1 63 33 2 68 6
Route #7: 51 17 40 12 26
Cost 744